WARNING: for repeatability, setting FPU to use double precision
============================[ Problem Statistics ]=============================
|                                                                             |
|  Number of variables:           100                                         |
|  Number of clauses:             449                                         |
|  Parse time:                   0.00 s                                       |
|  Eliminated clauses:           0.00 Mb                                      |
|  Simplification time:          0.00 s                                       |
|                                                                             |
============================[ Search Statistics ]==============================
| Conflicts |          ORIGINAL         |          LEARNT          | Progress |
|           |    Vars  Clauses Literals |    Limit  Clauses Lit/Cl |          |
===============================================================================
|       100 |      99      446     1345 |      163      100      6 |  0.021 % |
===============================================================================
restarts              : 2
conflicts             : 107            (42192 /sec)
decisions             : 150            (0.00 % random) (59148 /sec)
propagations          : 2541           (1001972 /sec)
conflict literals     : 636            (14.97 % deleted)
Memory used           : 13.00 MB
CPU time              : 0.002536 s

SATISFIABLE
